NAME: line_19_87
TYPE: TSP
COMMENT: srandom_19_87
DIMENSION: 19
EDGE_WEIGHT_TYPE: EUC_2D
NODE_COORD_SECTION
1 1112 4228
2 4673 2545
3 4987 2751
4 4438 2362
5 267 4167
6 1199 107
7 4044 2304
8 1829 709
9 1714 2304
10 2824 2275
11 3021 2181
12 3519 3659
13 1479 444
14 2485 4333
15 834 1270
16 4248 2224
17 2650 4178
18 2705 62
19 3706 1712
